(declare-fun temp4376_1 () (_ BitVec 64))
(declare-fun var196834 () (_ BitVec 64))
(declare-fun temp4376_2 () (_ BitVec 64))
(declare-fun temp4376_3 () (_ BitVec 64))
(declare-fun var66276 () (_ BitVec 64))
(declare-fun k!0 () Bool)
(declare-fun ARGNAME_x_NAMEEND_DIM () (_ BitVec 64))
(declare-fun temp4376_4 () (_ BitVec 64))
(declare-fun var65762 () (_ BitVec 64))
(declare-fun temp4376_5 () (_ BitVec 64))
(declare-fun temp4376_6 () (_ BitVec 64))
(declare-fun ARGNAME_x_NAMEEND_DIMSIZE () (Array (_ BitVec 64) (_ BitVec 64)))
(declare-fun temp4376_7 () (_ BitVec 64))
(declare-fun temp4376_8 () (_ BitVec 64))
(declare-fun temp4376_9 () (_ BitVec 64))
(declare-fun temp4376_10 () (_ BitVec 64))
(declare-fun temp4376_11 () (_ BitVec 64))
(declare-fun temp4376_12 () (_ BitVec 64))
(declare-fun temp4376_13 () (_ BitVec 64))
(declare-fun temp4376_14 () (_ BitVec 64))
(declare-fun temp4376_15 () (_ BitVec 64))
(declare-fun temp4376_16 () (_ BitVec 64))
(declare-fun temp4376_17 () (_ BitVec 64))
(declare-fun temp4376_18 () (_ BitVec 64))
(declare-fun temp4376_19 () (_ BitVec 64))
(declare-fun temp4376_20 () (_ BitVec 64))
(declare-fun temp4376_21 () (_ BitVec 64))
(declare-fun temp4376_22 () (_ BitVec 64))
(declare-fun temp4376_23 () (_ BitVec 64))
(declare-fun temp4376_24 () (_ BitVec 64))
(declare-fun temp4376_25 () (_ BitVec 64))
(declare-fun var66279 () (_ BitVec 64))
(declare-fun temp4376_27 () (_ BitVec 64))
(declare-fun temp4376_26 () (_ BitVec 64))
(declare-fun temp4376_28 () (_ BitVec 64))
(declare-fun var526834 () (_ BitVec 64))
(declare-fun var526836 () (_ BitVec 64))
(declare-fun var592572 () (_ BitVec 64))
(declare-fun var658116 () (_ BitVec 64))
(declare-fun temp4376_29 () (_ BitVec 64))
(declare-fun temp4376_30 () (_ BitVec 64))
(declare-fun temp4376_31 () (_ BitVec 64))
(declare-fun temp4376_32 () (_ BitVec 64))
(declare-fun var66309 () (_ BitVec 64))
(declare-fun temp4376_34 () (_ BitVec 64))
(declare-fun temp4376_33 () (_ BitVec 64))
(declare-fun temp4376_36 () (_ BitVec 64))
(declare-fun temp4376_35 () (_ BitVec 64))
(declare-fun temp4376_37 () (_ BitVec 64))
(declare-fun var2360614 () (_ BitVec 64))
(declare-fun temp4376_39 () (_ BitVec 64))
(declare-fun temp4376_38 () (_ BitVec 64))
(declare-fun temp4376_40 () (_ BitVec 64))
(declare-fun var2950438 () (_ BitVec 64))
(assert (= temp4376_1 #x0000000000000000))
(assert (= var196834 temp4376_1))
(assert (= temp4376_2 #x0000000000000001))
(assert (= var66276
   (ite (= ARGNAME_x_NAMEEND_DIM temp4376_2)
        #x0000000000000001
        #x0000000000000000)))
(assert (= temp4376_3 #x0000000000000001))
(assert (= var66276 temp4376_3))
(assert (= temp4376_4 #x0000000000000000))
(assert (= var65762 temp4376_4))
(assert (= temp4376_5 #x0000000000000000))
(assert (= temp4376_6 temp4376_5))
(assert (= temp4376_7 (select ARGNAME_x_NAMEEND_DIMSIZE temp4376_6)))
(assert (= temp4376_8 #x0000000000000001))
(assert (= temp4376_9 temp4376_8))
(assert (= temp4376_10 (select ARGNAME_x_NAMEEND_DIMSIZE temp4376_9)))
(assert (= temp4376_11 #x0000000000000002))
(assert (= temp4376_12 temp4376_11))
(assert (= temp4376_13 (select ARGNAME_x_NAMEEND_DIMSIZE temp4376_12)))
(assert (= temp4376_14 #x0000000000000003))
(assert (= temp4376_15 temp4376_14))
(assert (= temp4376_16 (select ARGNAME_x_NAMEEND_DIMSIZE temp4376_15)))
(assert (= temp4376_17 #x0000000000000004))
(assert (= temp4376_18 temp4376_17))
(assert (= temp4376_19 (select ARGNAME_x_NAMEEND_DIMSIZE temp4376_18)))
(assert (= temp4376_20 #x0000000000000005))
(assert (= temp4376_21 temp4376_20))
(assert (= temp4376_22 (select ARGNAME_x_NAMEEND_DIMSIZE temp4376_21)))
(assert (= temp4376_23 #x0000000000000000))
(assert (= temp4376_24
   (ite (bvslt var65762 temp4376_23)
        (bvadd ARGNAME_x_NAMEEND_DIM var65762)
        var65762)))
(assert (= temp4376_25 (select ARGNAME_x_NAMEEND_DIMSIZE temp4376_24)))
(assert (= var66279 temp4376_25))
(assert (bvslt (ite (bvslt var65762 temp4376_23)
            (bvadd ARGNAME_x_NAMEEND_DIM var65762)
            var65762)
       ARGNAME_x_NAMEEND_DIM))
(assert (= temp4376_27 #x0000000000000001))
(assert (= temp4376_26 temp4376_27))
(assert (= temp4376_28 #x0000000000000005))
(assert (= var526834 temp4376_28))
(assert (= var526836 var526834))
(assert (= var592572 var526836))
(assert (= var658116 var592572))
(assert (= temp4376_29 #x0000000000000000))
(assert (= var65762 temp4376_29))
(assert (= temp4376_30 #x0000000000000000))
(assert (= temp4376_31
   (ite (bvslt var65762 temp4376_30)
        (bvadd ARGNAME_x_NAMEEND_DIM var65762)
        var65762)))
(assert (= temp4376_32 (select ARGNAME_x_NAMEEND_DIMSIZE temp4376_31)))
(assert (= var66309 temp4376_32))
(assert (bvslt (ite (bvslt var65762 temp4376_30)
            (bvadd ARGNAME_x_NAMEEND_DIM var65762)
            var65762)
       ARGNAME_x_NAMEEND_DIM))
(assert (= temp4376_34 #x0000000000000000))
(assert (= temp4376_33 temp4376_34))
(assert (= temp4376_36 #xffffffffffffffff))
(assert (= temp4376_35 temp4376_36))
(assert (= temp4376_37 #x0000000000000001))
(assert (= var2360614 temp4376_37))
(assert (= temp4376_39 #x0000000000000001))
(assert (= temp4376_38 temp4376_39))
(assert (= temp4376_40 #x0000000000000001))
(assert (= var2950438 temp4376_40))
(model-add temp4376_1 () (_ BitVec 64) #x0000000000000000)
(model-add var196834 () (_ BitVec 64) #x0000000000000000)
(model-add temp4376_2 () (_ BitVec 64) #x0000000000000001)
(model-add temp4376_3 () (_ BitVec 64) #x0000000000000001)
(model-add var66276 () (_ BitVec 64) #x0000000000000001)
(model-del k!0)
(model-add ARGNAME_x_NAMEEND_DIM
           ()
           (_ BitVec 64)
           (ite k!0 #x0000000000000001 (bvnot #x0000000000000001)))


